NAME: rue_25_10
TYPE: TSP
DIMENSION: 25
EDGE_WEIGHT_TYPE: EUC_2D
NODE_COORD_SECTION
1 11 10
2 33 30
3 24 24
4 5 15
5 9 34
6 32 16
7 32 32
8 21 24
9 15 27
10 34 34
11 29 12
12 33 26
13 35 23
14 35 29
15 25 28
16 31 9
17 39 2
18 37 30
19 14 9
20 14 37
21 27 14
22 37 11
23 9 32
24 10 11
25 16 20

